50
2361 1032 3961 1550 666 4016 9180 8005 7652 2220 5367 2767 1727 1062 2145 9275 8290 8067 8005 1935 3099 6270 7319 8547 8801 868 6059 6718 5060 1778 4736 894 9346 8655 5477 3003 9089 5724 8824 8481 5084 4140 5990 4311 1614 3052 8126 433 464 6264 
3352 2033 4960 2544 1686 5004 10176 8993 8657 3211 6361 3777 2720 2064 3162 10259 9272 9056 9016 2940 4088 7263 8306 9545 9782 1876 7075 7737 6070 2797 5716 1885 10365 9666 6473 4021 10094 6737 9816 9468 6082 5125 6985 5330 2607 4032 9107 1419 1476 7258 
122529
